1106
635
900
1189
3756
1626
421
505
358
1597
3123
1257
357
2990
527
1722
1805
1274
3473
1472
2194
1355
290
189
3440
1218
3123
2803
1391
1206
2589
3950
4134
857
3542
2739
2244
1492
2579
1387
2304
737
297
667
3540
3104
3510
2271
776
2063
3247
3642
346
2681
3122
4035
2465
3120
281
477
322
1798
2236
3718
4285
4208
1784
4283
1017
1500
1201
960
4218
3526
2330
2422
1670
508
3067
1617
1975
1984
1770
3415
2519
777
1585
1732
1286
4059
2273
2639
1107
3560
815
1802
1367
1567
3331
3139
